x =  45;
y =  65;
c = 144;

n =  29;

// Let's index products with letters: A, B, C, ...

//     B   A   D   C   E   G   F   H   I   J   K   L   M   N   O   P   Q   R   S   T   U   V   W   X   Y   Z   [   \   ]
p = [  6   6   8   6   3   6   9   1   1   2   7   9   6   5   6   7   3   2   4   1   1   2   3   1   6   4   6   2   4  ];
w = [  9   6   5   8   2   7   6   1   7   9   9   3   5   9   2   6   8   6   4   7   3   3   5   6   6   9   3   6   5  ];
s = [  31   31   14   14   14   14   14   31   14   9   5   4   1   3   3   3   3   3   3   3   3   3   3   1   1   1   1   1   1  ];